proyfinal/src/viki/013/experimentInOfficeAgust.take6.output/1b85c8f6-4fcb-4df6-af5e-371dbe02fe3c.als.out
Reading from standard input... Use '--help' for help.
============================[ Problem Statistics ]=============================
|                                                                             |
|  Number of variables:         87638                                         |
|  Number of clauses:          161767                                         |
|  Parse time:                   0.03 s                                       |
|                                                                             |
============================[ Search Statistics ]==============================
| Conflicts |          ORIGINAL         |          LEARNT          | Progress |
|           |    Vars  Clauses Literals |    Limit  Clauses Lit/Cl |          |
===============================================================================
|       100 |   63342   108866   271252 |    39917      100     11 | 27.723 % |
|       250 |   63342   108866   271252 |    43909      250     36 | 27.723 % |
|       475 |   63341   108822   271162 |    48300      473     51 | 27.724 % |
|       812 |   63341   108822   271162 |    53130      810     50 | 27.724 % |
|      1318 |   63341   108822   271162 |    58443     1316     49 | 27.724 % |
|      2077 |   63313   108706   270897 |    64287     2074     59 | 27.756 % |
|      3216 |   63313   108706   270897 |    70716     3213     66 | 27.756 % |
|      4924 |   63313   108706   270897 |    77787     4921     63 | 27.756 % |
|      7486 |   63313   108706   270897 |    85566     7483     67 | 27.756 % |
|     11330 |   63259   108488   270391 |    94123    11099     71 | 27.818 % |
|     17096 |   57717    90521   226391 |   103535    15961     70 | 34.142 % |
===============================================================================
restarts              : 70
conflicts             : 20224          (7993 /sec)
decisions             : 62016          (0.00 % random) (24510 /sec)
propagations          : 26774750       (10581960 /sec)
conflict literals     : 1342342        (51.04 % deleted)
Memory used           : 33.58 MB
CPU time              : 2.53023 s

UNSATISFIABLE
